(declare-fun temp270_1 () (_ BitVec 64))
(declare-fun var201290 () (_ BitVec 64))
(declare-fun var201292 () (_ BitVec 64))
(declare-fun temp270_2 () (_ BitVec 64))
(declare-fun var332362 () (_ BitVec 64))
(declare-fun var332364 () (_ BitVec 64))
(declare-fun temp270_3 () (_ BitVec 64))
(declare-fun var733184 () (_ BitVec 64))
(declare-fun k!0 () Bool)
(declare-fun ARGNAME_input_NAMEEND_DIM () (_ BitVec 64))
(declare-fun ARGNAME_dims_NAMEEND_LEN () (_ BitVec 64))
(declare-fun temp270_4 () (_ BitVec 64))
(declare-fun var1116844 () (_ BitVec 64))
(declare-fun temp270_6 () (_ BitVec 64))
(declare-fun temp270_5 () (_ BitVec 64))
(declare-fun temp270_7 () (_ BitVec 64))
(declare-fun var1249866 () (_ BitVec 64))
(declare-fun var1249868 () (_ BitVec 64))
(declare-fun temp270_9 () (_ BitVec 64))
(declare-fun temp270_8 () (_ BitVec 64))
(declare-fun temp270_10 () (_ BitVec 64))
(declare-fun var1970762 () (_ BitVec 64))
(declare-fun var1970764 () (_ BitVec 64))
(declare-fun temp270_12 () (_ BitVec 64))
(declare-fun temp270_11 () (_ BitVec 64))
(declare-fun temp270_13 () (_ BitVec 64))
(declare-fun var3289646 () (_ BitVec 64))
(declare-fun var3486330 () (_ BitVec 64))
(declare-fun temp270_15 () (_ BitVec 64))
(declare-fun temp270_14 () (_ BitVec 64))
(declare-fun var3673410 () (_ BitVec 64))
(declare-fun temp270_16 () (_ BitVec 64))
(declare-fun temp270_17 () (_ BitVec 64))
(declare-fun var3738951 () (_ BitVec 64))
(declare-fun var3804498 () (_ BitVec 64))
(assert (= temp270_1 #x0000000000000005))
(assert (= var201290 temp270_1))
(assert (= var201292 var201290))
(assert (= temp270_2 #x0000000000000005))
(assert (= var332362 temp270_2))
(assert (= var332364 var332362))
(assert (= var733184
   (ite (= ARGNAME_input_NAMEEND_DIM ARGNAME_dims_NAMEEND_LEN)
        #x0000000000000001
        #x0000000000000000)))
(assert (= temp270_3 #x0000000000000001))
(assert (= var733184 temp270_3))
(assert (= temp270_4 #x0000000000000001))
(assert (= var1116844 temp270_4))
(assert (= temp270_6 #x0000000000000000))
(assert (= temp270_5 temp270_6))
(assert (= temp270_7 #x0000000000000005))
(assert (= var1249866 temp270_7))
(assert (= var1249868 var1249866))
(assert (= temp270_9 #x0000000000000000))
(assert (= temp270_8 temp270_9))
(assert (= temp270_10 #x0000000000000005))
(assert (= var1970762 temp270_10))
(assert (= var1970764 var1970762))
(assert (= temp270_12 #x0000000000000000))
(assert (= temp270_11 temp270_12))
(assert (= temp270_13 #x0000000000000000))
(assert (= var3289646
   (ite (distinct temp270_11 temp270_13) #x0000000000000001 #x0000000000000000)))
(assert (= var3486330 var3289646))
(assert (= temp270_15 #x0000000000000000))
(assert (= temp270_14 temp270_15))
(assert (= var3673410
   (ite (bvslt temp270_14 ARGNAME_input_NAMEEND_DIM)
        #x0000000000000001
        #x0000000000000000)))
(assert (= temp270_16
   (ite (= var3673410 #x0000000000000001) ARGNAME_input_NAMEEND_DIM temp270_14)))
(assert (= temp270_17 #x0000000000000000))
(assert (= var3738951 temp270_17))
(assert (= var3804498 var3738951))
(model-add temp270_1 () (_ BitVec 64) #x0000000000000005)
(model-add var201290 () (_ BitVec 64) #x0000000000000005)
(model-add var201292 () (_ BitVec 64) #x0000000000000005)
(model-add temp270_2 () (_ BitVec 64) #x0000000000000005)
(model-add var332362 () (_ BitVec 64) #x0000000000000005)
(model-add var332364 () (_ BitVec 64) #x0000000000000005)
(model-add temp270_3 () (_ BitVec 64) #x0000000000000001)
(model-add var733184 () (_ BitVec 64) #x0000000000000001)
(model-del k!0)
(model-add ARGNAME_input_NAMEEND_DIM
           ()
           (_ BitVec 64)
           (ite k!0 ARGNAME_dims_NAMEEND_LEN (bvnot ARGNAME_dims_NAMEEND_LEN)))






